instances/knapsack/knapsack_interdiction/knapsack_100_1_4.kp
42
100
9676

287 29.0 387 68.6
248 25.0 348 37.07
304 30.0 404 63.17
924 92.0 1024 194.39
466 47.0 566 76.24
418 42.0 518 53.85
911 91.0 1011 199.64
506 51.0 606 85.67
412 41.0 512 91.88
931 93.0 1031 176.0
357 36.0 457 65.19
631 63.0 731 144.74
525 52.0 625 121.17
683 68.0 783 84.1
95 10.0 195 20.24
737 74.0 837 160.09
133 13.0 233 33.64
936 94.0 1036 106.98
294 29.0 394 76.84
408 41.0 508 87.55
347 35.0 447 79.36
289 29.0 389 46.46
119 12.0 219 34.58
825 82.0 925 112.75
356 36.0 456 85.84
997 100.0 1097 152.43
440 44.0 540 89.02
752 75.0 852 123.71
124 12.0 224 44.76
569 57.0 669 126.09
864 86.0 964 144.0
74 7.0 174 33.45
373 37.0 473 63.42
448 45.0 548 90.94
620 62.0 720 79.78
24 2.0 124 14.5
401 40.0 501 58.81
68 7.0 168 24.33
98 10.0 198 26.92
679 68.0 779 88.16
277 28.0 377 70.53
971 97.0 1071 151.96
795 80.0 895 91.68
365 36.0 465 82.54
60 6.0 160 22.83
334 33.0 434 46.54
986 99.0 1086 122.78
342 34.0 442 63.56
228 23.0 328 54.67
499 50.0 599 87.51
356 36.0 456 89.98
844 84.0 944 150.61
978 98.0 1078 189.64
386 39.0 486 65.02
91 9.0 191 29.26
517 52.0 617 69.19
77 8.0 177 23.16
980 98.0 1080 117.82
211 21.0 311 54.95
14 1.0 114 20.62
849 85.0 949 134.21
247 25.0 347 51.59
687 69.0 787 145.86
206 21.0 306 46.13
83 8.0 183 28.0
910 91.0 1010 194.66
529 53.0 629 116.18
269 27.0 369 45.59
44 4.0 144 16.38
485 48.0 585 83.87
645 64.0 745 100.63
611 61.0 711 114.05
372 37.0 472 73.14
819 82.0 919 149.1
240 24.0 340 40.87
973 97.0 1073 129.94
652 65.0 752 125.98
544 54.0 644 119.28
578 58.0 678 127.81
225 22.0 325 49.18
591 59.0 691 97.74
422 42.0 522 95.41
461 46.0 561 70.9
851 85.0 951 114.45
462 46.0 562 78.53
315 32.0 415 51.66
937 94.0 1037 119.38
737 74.0 837 95.29
175 18.0 275 50.76
196 20.0 296 51.14
926 93.0 1026 173.62
137 14.0 237 23.95
969 97.0 1069 211.79
262 26.0 362 53.93
957 96.0 1057 206.07
330 33.0 430 75.67
127 13.0 227 32.76
278 28.0 378 68.57
588 59.0 688 104.61
711 71.0 811 160.54

42
[996]

[[4, 6, 2, 2, 3, 8, 3, 0, 9, 7, 6, 2, 9, 4, 7, 2, 6, 1, 6, 3, 7, 6, 5, 4, 8, 0, 7, 4, 2, 6, 8, 9, 5, 3, 8, 5, 6, 7, 1, 0, 6, 8, 8, 7, 7, 4, 5, 2, 5, 9, 3, 5, 9, 6, 4, 2, 1, 8, 9, 8, 5, 2, 5, 8, 8, 6, 5, 8, 2, 4, 3, 3, 6, 9, 3, 8, 3, 7, 0, 0, 5, 8, 9, 0, 6, 9, 6, 2, 8, 9, 7, 8, 2, 1, 5, 2, 1, 1, 6, 8]]

[[185, 651, 533, 772, 867, 509, 428, 697, 677, 47, 851, 262, 782, 127, 173, 257, 854, 364, 387, 520, 309, 772, 284, 64, 181, 432, 101, 431, 646, 764, 38, 217, 454, 779, 633, 903, 634, 720, 839, 391, 902, 239, 641, 260, 933, 857, 912, 389, 118, 598, 649, 268, 571, 237, 849, 749, 175, 591, 496, 238, 51, 178, 781, 741, 613, 617, 654, 980, 197, 561, 90, 210, 157, 398, 270, 996, 101, 620, 656, 761, 440, 793, 403, 43, 95, 327, 855, 256, 448, 968, 292, 736, 155, 850, 507, 362, 632, 130, 73, 527]]
