instances/knapsack/knapsack_interdiction/knapsack_100_1_4.lp
\ Model knapsack_100_1_4
\ LP format - for model browsing. Use MPS format to capture full model detail.
\ Signature: 0x645aa6eba62d0f0f
Minimize
  68.6 x[0] + 37.07 x[1] + 63.17 x[2] + 194.39 x[3] + 76.24 x[4]
   + 53.85 x[5] + 199.64 x[6] + 85.67 x[7] + 91.88 x[8] + 176 x[9]
   + 65.19 x[10] + 144.74 x[11] + 121.17 x[12] + 84.1 x[13] + 20.24 x[14]
   + 160.09 x[15] + 33.64 x[16] + 106.98 x[17] + 76.84 x[18] + 87.55 x[19]
   + 79.36 x[20] + 46.46 x[21] + 34.58 x[22] + 112.75 x[23] + 85.84 x[24]
   + 152.43 x[25] + 89.02 x[26] + 123.71 x[27] + 44.76 x[28] + 126.09 x[29]
   + 144 x[30] + 33.45 x[31] + 63.42 x[32] + 90.94 x[33] + 79.78 x[34]
   + 14.5 x[35] + 58.81 x[36] + 24.33 x[37] + 26.92 x[38] + 88.16 x[39]
   + 70.53 x[40] + 151.96 x[41] + 91.68 x[42] + 82.54 x[43] + 22.83 x[44]
   + 46.54 x[45] + 122.78 x[46] + 63.56 x[47] + 54.67 x[48] + 87.51 x[49]
   + 89.98 x[50] + 150.61 x[51] + 189.64 x[52] + 65.02 x[53] + 29.26 x[54]
   + 69.19 x[55] + 23.16 x[56] + 117.82 x[57] + 54.95 x[58] + 20.62 x[59]
   + 134.21 x[60] + 51.59 x[61] + 145.86 x[62] + 46.13 x[63] + 28 x[64]
   + 194.66 x[65] + 116.18 x[66] + 45.59 x[67] + 16.38 x[68] + 83.87 x[69]
   + 100.63 x[70] + 114.05 x[71] + 73.14 x[72] + 149.1 x[73] + 40.87 x[74]
   + 129.94 x[75] + 125.98 x[76] + 119.28 x[77] + 127.81 x[78]
   + 49.18 x[79] + 97.74 x[80] + 95.41 x[81] + 70.9 x[82] + 114.45 x[83]
   + 78.53 x[84] + 51.66 x[85] + 119.38 x[86] + 95.29 x[87] + 50.76 x[88]
   + 51.14 x[89] + 173.62 x[90] + 23.95 x[91] + 211.79 x[92] + 53.93 x[93]
   + 206.07 x[94] + 75.67 x[95] + 32.76 x[96] + 68.57 x[97] + 104.61 x[98]
   + 160.54 x[99] - 387 y[0] - 348 y[1] - 404 y[2] - 1024 y[3] - 566 y[4]
   - 518 y[5] - 1011 y[6] - 606 y[7] - 512 y[8] - 1031 y[9] - 457 y[10]
   - 731 y[11] - 625 y[12] - 783 y[13] - 195 y[14] - 837 y[15] - 233 y[16]
   - 1036 y[17] - 394 y[18] - 508 y[19] - 447 y[20] - 389 y[21] - 219 y[22]
   - 925 y[23] - 456 y[24] - 1097 y[25] - 540 y[26] - 852 y[27] - 224 y[28]
   - 669 y[29] - 964 y[30] - 174 y[31] - 473 y[32] - 548 y[33] - 720 y[34]
   - 124 y[35] - 501 y[36] - 168 y[37] - 198 y[38] - 779 y[39] - 377 y[40]
   - 1071 y[41] - 895 y[42] - 465 y[43] - 160 y[44] - 434 y[45]
   - 1086 y[46] - 442 y[47] - 328 y[48] - 599 y[49] - 456 y[50] - 944 y[51]
   - 1078 y[52] - 486 y[53] - 191 y[54] - 617 y[55] - 177 y[56]
   - 1080 y[57] - 311 y[58] - 114 y[59] - 949 y[60] - 347 y[61] - 787 y[62]
   - 306 y[63] - 183 y[64] - 1010 y[65] - 629 y[66] - 369 y[67] - 144 y[68]
   - 585 y[69] - 745 y[70] - 711 y[71] - 472 y[72] - 919 y[73] - 340 y[74]
   - 1073 y[75] - 752 y[76] - 644 y[77] - 678 y[78] - 325 y[79] - 691 y[80]
   - 522 y[81] - 561 y[82] - 951 y[83] - 562 y[84] - 415 y[85] - 1037 y[86]
   - 837 y[87] - 275 y[88] - 296 y[89] - 1026 y[90] - 237 y[91]
   - 1069 y[92] - 362 y[93] - 1057 y[94] - 430 y[95] - 227 y[96]
   - 378 y[97] - 688 y[98] - 811 y[99]
Subject To
 primal_upper: 287 y[0] + 248 y[1] + 304 y[2] + 924 y[3] + 466 y[4]
   + 418 y[5] + 911 y[6] + 506 y[7] + 412 y[8] + 931 y[9] + 357 y[10]
   + 631 y[11] + 525 y[12] + 683 y[13] + 95 y[14] + 737 y[15] + 133 y[16]
   + 936 y[17] + 294 y[18] + 408 y[19] + 347 y[20] + 289 y[21] + 119 y[22]
   + 825 y[23] + 356 y[24] + 997 y[25] + 440 y[26] + 752 y[27] + 124 y[28]
   + 569 y[29] + 864 y[30] + 74 y[31] + 373 y[32] + 448 y[33] + 620 y[34]
   + 24 y[35] + 401 y[36] + 68 y[37] + 98 y[38] + 679 y[39] + 277 y[40]
   + 971 y[41] + 795 y[42] + 365 y[43] + 60 y[44] + 334 y[45] + 986 y[46]
   + 342 y[47] + 228 y[48] + 499 y[49] + 356 y[50] + 844 y[51] + 978 y[52]
   + 386 y[53] + 91 y[54] + 517 y[55] + 77 y[56] + 980 y[57] + 211 y[58]
   + 14 y[59] + 849 y[60] + 247 y[61] + 687 y[62] + 206 y[63] + 83 y[64]
   + 910 y[65] + 529 y[66] + 269 y[67] + 44 y[68] + 485 y[69] + 645 y[70]
   + 611 y[71] + 372 y[72] + 819 y[73] + 240 y[74] + 973 y[75] + 652 y[76]
   + 544 y[77] + 578 y[78] + 225 y[79] + 591 y[80] + 422 y[81] + 461 y[82]
   + 851 y[83] + 462 y[84] + 315 y[85] + 937 y[86] + 737 y[87] + 175 y[88]
   + 196 y[89] + 926 y[90] + 137 y[91] + 969 y[92] + 262 y[93] + 957 y[94]
   + 330 y[95] + 127 y[96] + 278 y[97] + 588 y[98] + 711 y[99] + 29 z[0]
   + 25 z[1] + 30 z[2] + 92 z[3] + 47 z[4] + 42 z[5] + 91 z[6] + 51 z[7]
   + 41 z[8] + 93 z[9] + 36 z[10] + 63 z[11] + 52 z[12] + 68 z[13]
   + 10 z[14] + 74 z[15] + 13 z[16] + 94 z[17] + 29 z[18] + 41 z[19]
   + 35 z[20] + 29 z[21] + 12 z[22] + 82 z[23] + 36 z[24] + 100 z[25]
   + 44 z[26] + 75 z[27] + 12 z[28] + 57 z[29] + 86 z[30] + 7 z[31]
   + 37 z[32] + 45 z[33] + 62 z[34] + 2 z[35] + 40 z[36] + 7 z[37]
   + 10 z[38] + 68 z[39] + 28 z[40] + 97 z[41] + 80 z[42] + 36 z[43]
   + 6 z[44] + 33 z[45] + 99 z[46] + 34 z[47] + 23 z[48] + 50 z[49]
   + 36 z[50] + 84 z[51] + 98 z[52] + 39 z[53] + 9 z[54] + 52 z[55]
   + 8 z[56] + 98 z[57] + 21 z[58] + z[59] + 85 z[60] + 25 z[61] + 69 z[62]
   + 21 z[63] + 8 z[64] + 91 z[65] + 53 z[66] + 27 z[67] + 4 z[68]
   + 48 z[69] + 64 z[70] + 61 z[71] + 37 z[72] + 82 z[73] + 24 z[74]
   + 97 z[75] + 65 z[76] + 54 z[77] + 58 z[78] + 22 z[79] + 59 z[80]
   + 42 z[81] + 46 z[82] + 85 z[83] + 46 z[84] + 32 z[85] + 94 z[86]
   + 74 z[87] + 18 z[88] + 20 z[89] + 93 z[90] + 14 z[91] + 97 z[92]
   + 26 z[93] + 96 z[94] + 33 z[95] + 13 z[96] + 28 z[97] + 59 z[98]
   + 71 z[99] <= 9676
 primal_lower0: 185 u[0] + 651 u[1] + 533 u[2] + 772 u[3] + 867 u[4]
   + 509 u[5] + 428 u[6] + 697 u[7] + 677 u[8] + 47 u[9] + 851 u[10]
   + 262 u[11] + 782 u[12] + 127 u[13] + 173 u[14] + 257 u[15] + 854 u[16]
   + 364 u[17] + 387 u[18] + 520 u[19] + 309 u[20] + 772 u[21] + 284 u[22]
   + 64 u[23] + 181 u[24] + 432 u[25] + 101 u[26] + 431 u[27] + 646 u[28]
   + 764 u[29] + 38 u[30] + 217 u[31] + 454 u[32] + 779 u[33] + 633 u[34]
   + 903 u[35] + 634 u[36] + 720 u[37] + 839 u[38] + 391 u[39] + 902 u[40]
   + 239 u[41] + 641 u[42] + 260 u[43] + 933 u[44] + 857 u[45] + 912 u[46]
   + 389 u[47] + 118 u[48] + 598 u[49] + 649 u[50] + 268 u[51] + 571 u[52]
   + 237 u[53] + 849 u[54] + 749 u[55] + 175 u[56] + 591 u[57] + 496 u[58]
   + 238 u[59] + 51 u[60] + 178 u[61] + 781 u[62] + 741 u[63] + 613 u[64]
   + 617 u[65] + 654 u[66] + 980 u[67] + 197 u[68] + 561 u[69] + 90 u[70]
   + 210 u[71] + 157 u[72] + 398 u[73] + 270 u[74] + 996 u[75] + 101 u[76]
   + 620 u[77] + 656 u[78] + 761 u[79] + 440 u[80] + 793 u[81] + 403 u[82]
   + 43 u[83] + 95 u[84] + 327 u[85] + 855 u[86] + 256 u[87] + 448 u[88]
   + 968 u[89] + 292 u[90] + 736 u[91] + 155 u[92] + 850 u[93] + 507 u[94]
   + 362 u[95] + 632 u[96] + 130 u[97] + 73 u[98] + 527 u[99] <= 996
 interdiction[0]: x[0] + u[0] <= 1
 interdiction[1]: x[1] + u[1] <= 1
 interdiction[2]: x[2] + u[2] <= 1
 interdiction[3]: x[3] + u[3] <= 1
 interdiction[4]: x[4] + u[4] <= 1
 interdiction[5]: x[5] + u[5] <= 1
 interdiction[6]: x[6] + u[6] <= 1
 interdiction[7]: x[7] + u[7] <= 1
 interdiction[8]: x[8] + u[8] <= 1
 interdiction[9]: x[9] + u[9] <= 1
 interdiction[10]: x[10] + u[10] <= 1
 interdiction[11]: x[11] + u[11] <= 1
 interdiction[12]: x[12] + u[12] <= 1
 interdiction[13]: x[13] + u[13] <= 1
 interdiction[14]: x[14] + u[14] <= 1
 interdiction[15]: x[15] + u[15] <= 1
 interdiction[16]: x[16] + u[16] <= 1
 interdiction[17]: x[17] + u[17] <= 1
 interdiction[18]: x[18] + u[18] <= 1
 interdiction[19]: x[19] + u[19] <= 1
 interdiction[20]: x[20] + u[20] <= 1
 interdiction[21]: x[21] + u[21] <= 1
 interdiction[22]: x[22] + u[22] <= 1
 interdiction[23]: x[23] + u[23] <= 1
 interdiction[24]: x[24] + u[24] <= 1
 interdiction[25]: x[25] + u[25] <= 1
 interdiction[26]: x[26] + u[26] <= 1
 interdiction[27]: x[27] + u[27] <= 1
 interdiction[28]: x[28] + u[28] <= 1
 interdiction[29]: x[29] + u[29] <= 1
 interdiction[30]: x[30] + u[30] <= 1
 interdiction[31]: x[31] + u[31] <= 1
 interdiction[32]: x[32] + u[32] <= 1
 interdiction[33]: x[33] + u[33] <= 1
 interdiction[34]: x[34] + u[34] <= 1
 interdiction[35]: x[35] + u[35] <= 1
 interdiction[36]: x[36] + u[36] <= 1
 interdiction[37]: x[37] + u[37] <= 1
 interdiction[38]: x[38] + u[38] <= 1
 interdiction[39]: x[39] + u[39] <= 1
 interdiction[40]: x[40] + u[40] <= 1
 interdiction[41]: x[41] + u[41] <= 1
 interdiction[42]: x[42] + u[42] <= 1
 interdiction[43]: x[43] + u[43] <= 1
 interdiction[44]: x[44] + u[44] <= 1
 interdiction[45]: x[45] + u[45] <= 1
 interdiction[46]: x[46] + u[46] <= 1
 interdiction[47]: x[47] + u[47] <= 1
 interdiction[48]: x[48] + u[48] <= 1
 interdiction[49]: x[49] + u[49] <= 1
 interdiction[50]: x[50] + u[50] <= 1
 interdiction[51]: x[51] + u[51] <= 1
 interdiction[52]: x[52] + u[52] <= 1
 interdiction[53]: x[53] + u[53] <= 1
 interdiction[54]: x[54] + u[54] <= 1
 interdiction[55]: x[55] + u[55] <= 1
 interdiction[56]: x[56] + u[56] <= 1
 interdiction[57]: x[57] + u[57] <= 1
 interdiction[58]: x[58] + u[58] <= 1
 interdiction[59]: x[59] + u[59] <= 1
 interdiction[60]: x[60] + u[60] <= 1
 interdiction[61]: x[61] + u[61] <= 1
 interdiction[62]: x[62] + u[62] <= 1
 interdiction[63]: x[63] + u[63] <= 1
 interdiction[64]: x[64] + u[64] <= 1
 interdiction[65]: x[65] + u[65] <= 1
 interdiction[66]: x[66] + u[66] <= 1
 interdiction[67]: x[67] + u[67] <= 1
 interdiction[68]: x[68] + u[68] <= 1
 interdiction[69]: x[69] + u[69] <= 1
 interdiction[70]: x[70] + u[70] <= 1
 interdiction[71]: x[71] + u[71] <= 1
 interdiction[72]: x[72] + u[72] <= 1
 interdiction[73]: x[73] + u[73] <= 1
 interdiction[74]: x[74] + u[74] <= 1
 interdiction[75]: x[75] + u[75] <= 1
 interdiction[76]: x[76] + u[76] <= 1
 interdiction[77]: x[77] + u[77] <= 1
 interdiction[78]: x[78] + u[78] <= 1
 interdiction[79]: x[79] + u[79] <= 1
 interdiction[80]: x[80] + u[80] <= 1
 interdiction[81]: x[81] + u[81] <= 1
 interdiction[82]: x[82] + u[82] <= 1
 interdiction[83]: x[83] + u[83] <= 1
 interdiction[84]: x[84] + u[84] <= 1
 interdiction[85]: x[85] + u[85] <= 1
 interdiction[86]: x[86] + u[86] <= 1
 interdiction[87]: x[87] + u[87] <= 1
 interdiction[88]: x[88] + u[88] <= 1
 interdiction[89]: x[89] + u[89] <= 1
 interdiction[90]: x[90] + u[90] <= 1
 interdiction[91]: x[91] + u[91] <= 1
 interdiction[92]: x[92] + u[92] <= 1
 interdiction[93]: x[93] + u[93] <= 1
 interdiction[94]: x[94] + u[94] <= 1
 interdiction[95]: x[95] + u[95] <= 1
 interdiction[96]: x[96] + u[96] <= 1
 interdiction[97]: x[97] + u[97] <= 1
 interdiction[98]: x[98] + u[98] <= 1
 interdiction[99]: x[99] + u[99] <= 1
 mccormick1[0]: - u[0] + z[0] <= 0
 mccormick1[1]: - u[1] + z[1] <= 0
 mccormick1[2]: - u[2] + z[2] <= 0
 mccormick1[3]: - u[3] + z[3] <= 0
 mccormick1[4]: - u[4] + z[4] <= 0
 mccormick1[5]: - u[5] + z[5] <= 0
 mccormick1[6]: - u[6] + z[6] <= 0
 mccormick1[7]: - u[7] + z[7] <= 0
 mccormick1[8]: - u[8] + z[8] <= 0
 mccormick1[9]: - u[9] + z[9] <= 0
 mccormick1[10]: - u[10] + z[10] <= 0
 mccormick1[11]: - u[11] + z[11] <= 0
 mccormick1[12]: - u[12] + z[12] <= 0
 mccormick1[13]: - u[13] + z[13] <= 0
 mccormick1[14]: - u[14] + z[14] <= 0
 mccormick1[15]: - u[15] + z[15] <= 0
 mccormick1[16]: - u[16] + z[16] <= 0
 mccormick1[17]: - u[17] + z[17] <= 0
 mccormick1[18]: - u[18] + z[18] <= 0
 mccormick1[19]: - u[19] + z[19] <= 0
 mccormick1[20]: - u[20] + z[20] <= 0
 mccormick1[21]: - u[21] + z[21] <= 0
 mccormick1[22]: - u[22] + z[22] <= 0
 mccormick1[23]: - u[23] + z[23] <= 0
 mccormick1[24]: - u[24] + z[24] <= 0
 mccormick1[25]: - u[25] + z[25] <= 0
 mccormick1[26]: - u[26] + z[26] <= 0
 mccormick1[27]: - u[27] + z[27] <= 0
 mccormick1[28]: - u[28] + z[28] <= 0
 mccormick1[29]: - u[29] + z[29] <= 0
 mccormick1[30]: - u[30] + z[30] <= 0
 mccormick1[31]: - u[31] + z[31] <= 0
 mccormick1[32]: - u[32] + z[32] <= 0
 mccormick1[33]: - u[33] + z[33] <= 0
 mccormick1[34]: - u[34] + z[34] <= 0
 mccormick1[35]: - u[35] + z[35] <= 0
 mccormick1[36]: - u[36] + z[36] <= 0
 mccormick1[37]: - u[37] + z[37] <= 0
 mccormick1[38]: - u[38] + z[38] <= 0
 mccormick1[39]: - u[39] + z[39] <= 0
 mccormick1[40]: - u[40] + z[40] <= 0
 mccormick1[41]: - u[41] + z[41] <= 0
 mccormick1[42]: - u[42] + z[42] <= 0
 mccormick1[43]: - u[43] + z[43] <= 0
 mccormick1[44]: - u[44] + z[44] <= 0
 mccormick1[45]: - u[45] + z[45] <= 0
 mccormick1[46]: - u[46] + z[46] <= 0
 mccormick1[47]: - u[47] + z[47] <= 0
 mccormick1[48]: - u[48] + z[48] <= 0
 mccormick1[49]: - u[49] + z[49] <= 0
 mccormick1[50]: - u[50] + z[50] <= 0
 mccormick1[51]: - u[51] + z[51] <= 0
 mccormick1[52]: - u[52] + z[52] <= 0
 mccormick1[53]: - u[53] + z[53] <= 0
 mccormick1[54]: - u[54] + z[54] <= 0
 mccormick1[55]: - u[55] + z[55] <= 0
 mccormick1[56]: - u[56] + z[56] <= 0
 mccormick1[57]: - u[57] + z[57] <= 0
 mccormick1[58]: - u[58] + z[58] <= 0
 mccormick1[59]: - u[59] + z[59] <= 0
 mccormick1[60]: - u[60] + z[60] <= 0
 mccormick1[61]: - u[61] + z[61] <= 0
 mccormick1[62]: - u[62] + z[62] <= 0
 mccormick1[63]: - u[63] + z[63] <= 0
 mccormick1[64]: - u[64] + z[64] <= 0
 mccormick1[65]: - u[65] + z[65] <= 0
 mccormick1[66]: - u[66] + z[66] <= 0
 mccormick1[67]: - u[67] + z[67] <= 0
 mccormick1[68]: - u[68] + z[68] <= 0
 mccormick1[69]: - u[69] + z[69] <= 0
 mccormick1[70]: - u[70] + z[70] <= 0
 mccormick1[71]: - u[71] + z[71] <= 0
 mccormick1[72]: - u[72] + z[72] <= 0
 mccormick1[73]: - u[73] + z[73] <= 0
 mccormick1[74]: - u[74] + z[74] <= 0
 mccormick1[75]: - u[75] + z[75] <= 0
 mccormick1[76]: - u[76] + z[76] <= 0
 mccormick1[77]: - u[77] + z[77] <= 0
 mccormick1[78]: - u[78] + z[78] <= 0
 mccormick1[79]: - u[79] + z[79] <= 0
 mccormick1[80]: - u[80] + z[80] <= 0
 mccormick1[81]: - u[81] + z[81] <= 0
 mccormick1[82]: - u[82] + z[82] <= 0
 mccormick1[83]: - u[83] + z[83] <= 0
 mccormick1[84]: - u[84] + z[84] <= 0
 mccormick1[85]: - u[85] + z[85] <= 0
 mccormick1[86]: - u[86] + z[86] <= 0
 mccormick1[87]: - u[87] + z[87] <= 0
 mccormick1[88]: - u[88] + z[88] <= 0
 mccormick1[89]: - u[89] + z[89] <= 0
 mccormick1[90]: - u[90] + z[90] <= 0
 mccormick1[91]: - u[91] + z[91] <= 0
 mccormick1[92]: - u[92] + z[92] <= 0
 mccormick1[93]: - u[93] + z[93] <= 0
 mccormick1[94]: - u[94] + z[94] <= 0
 mccormick1[95]: - u[95] + z[95] <= 0
 mccormick1[96]: - u[96] + z[96] <= 0
 mccormick1[97]: - u[97] + z[97] <= 0
 mccormick1[98]: - u[98] + z[98] <= 0
 mccormick1[99]: - u[99] + z[99] <= 0
 mccormick2[0]: - y[0] + z[0] <= 0
 mccormick2[1]: - y[1] + z[1] <= 0
 mccormick2[2]: - y[2] + z[2] <= 0
 mccormick2[3]: - y[3] + z[3] <= 0
 mccormick2[4]: - y[4] + z[4] <= 0
 mccormick2[5]: - y[5] + z[5] <= 0
 mccormick2[6]: - y[6] + z[6] <= 0
 mccormick2[7]: - y[7] + z[7] <= 0
 mccormick2[8]: - y[8] + z[8] <= 0
 mccormick2[9]: - y[9] + z[9] <= 0
 mccormick2[10]: - y[10] + z[10] <= 0
 mccormick2[11]: - y[11] + z[11] <= 0
 mccormick2[12]: - y[12] + z[12] <= 0
 mccormick2[13]: - y[13] + z[13] <= 0
 mccormick2[14]: - y[14] + z[14] <= 0
 mccormick2[15]: - y[15] + z[15] <= 0
 mccormick2[16]: - y[16] + z[16] <= 0
 mccormick2[17]: - y[17] + z[17] <= 0
 mccormick2[18]: - y[18] + z[18] <= 0
 mccormick2[19]: - y[19] + z[19] <= 0
 mccormick2[20]: - y[20] + z[20] <= 0
 mccormick2[21]: - y[21] + z[21] <= 0
 mccormick2[22]: - y[22] + z[22] <= 0
 mccormick2[23]: - y[23] + z[23] <= 0
 mccormick2[24]: - y[24] + z[24] <= 0
 mccormick2[25]: - y[25] + z[25] <= 0
 mccormick2[26]: - y[26] + z[26] <= 0
 mccormick2[27]: - y[27] + z[27] <= 0
 mccormick2[28]: - y[28] + z[28] <= 0
 mccormick2[29]: - y[29] + z[29] <= 0
 mccormick2[30]: - y[30] + z[30] <= 0
 mccormick2[31]: - y[31] + z[31] <= 0
 mccormick2[32]: - y[32] + z[32] <= 0
 mccormick2[33]: - y[33] + z[33] <= 0
 mccormick2[34]: - y[34] + z[34] <= 0
 mccormick2[35]: - y[35] + z[35] <= 0
 mccormick2[36]: - y[36] + z[36] <= 0
 mccormick2[37]: - y[37] + z[37] <= 0
 mccormick2[38]: - y[38] + z[38] <= 0
 mccormick2[39]: - y[39] + z[39] <= 0
 mccormick2[40]: - y[40] + z[40] <= 0
 mccormick2[41]: - y[41] + z[41] <= 0
 mccormick2[42]: - y[42] + z[42] <= 0
 mccormick2[43]: - y[43] + z[43] <= 0
 mccormick2[44]: - y[44] + z[44] <= 0
 mccormick2[45]: - y[45] + z[45] <= 0
 mccormick2[46]: - y[46] + z[46] <= 0
 mccormick2[47]: - y[47] + z[47] <= 0
 mccormick2[48]: - y[48] + z[48] <= 0
 mccormick2[49]: - y[49] + z[49] <= 0
 mccormick2[50]: - y[50] + z[50] <= 0
 mccormick2[51]: - y[51] + z[51] <= 0
 mccormick2[52]: - y[52] + z[52] <= 0
 mccormick2[53]: - y[53] + z[53] <= 0
 mccormick2[54]: - y[54] + z[54] <= 0
 mccormick2[55]: - y[55] + z[55] <= 0
 mccormick2[56]: - y[56] + z[56] <= 0
 mccormick2[57]: - y[57] + z[57] <= 0
 mccormick2[58]: - y[58] + z[58] <= 0
 mccormick2[59]: - y[59] + z[59] <= 0
 mccormick2[60]: - y[60] + z[60] <= 0
 mccormick2[61]: - y[61] + z[61] <= 0
 mccormick2[62]: - y[62] + z[62] <= 0
 mccormick2[63]: - y[63] + z[63] <= 0
 mccormick2[64]: - y[64] + z[64] <= 0
 mccormick2[65]: - y[65] + z[65] <= 0
 mccormick2[66]: - y[66] + z[66] <= 0
 mccormick2[67]: - y[67] + z[67] <= 0
 mccormick2[68]: - y[68] + z[68] <= 0
 mccormick2[69]: - y[69] + z[69] <= 0
 mccormick2[70]: - y[70] + z[70] <= 0
 mccormick2[71]: - y[71] + z[71] <= 0
 mccormick2[72]: - y[72] + z[72] <= 0
 mccormick2[73]: - y[73] + z[73] <= 0
 mccormick2[74]: - y[74] + z[74] <= 0
 mccormick2[75]: - y[75] + z[75] <= 0
 mccormick2[76]: - y[76] + z[76] <= 0
 mccormick2[77]: - y[77] + z[77] <= 0
 mccormick2[78]: - y[78] + z[78] <= 0
 mccormick2[79]: - y[79] + z[79] <= 0
 mccormick2[80]: - y[80] + z[80] <= 0
 mccormick2[81]: - y[81] + z[81] <= 0
 mccormick2[82]: - y[82] + z[82] <= 0
 mccormick2[83]: - y[83] + z[83] <= 0
 mccormick2[84]: - y[84] + z[84] <= 0
 mccormick2[85]: - y[85] + z[85] <= 0
 mccormick2[86]: - y[86] + z[86] <= 0
 mccormick2[87]: - y[87] + z[87] <= 0
 mccormick2[88]: - y[88] + z[88] <= 0
 mccormick2[89]: - y[89] + z[89] <= 0
 mccormick2[90]: - y[90] + z[90] <= 0
 mccormick2[91]: - y[91] + z[91] <= 0
 mccormick2[92]: - y[92] + z[92] <= 0
 mccormick2[93]: - y[93] + z[93] <= 0
 mccormick2[94]: - y[94] + z[94] <= 0
 mccormick2[95]: - y[95] + z[95] <= 0
 mccormick2[96]: - y[96] + z[96] <= 0
 mccormick2[97]: - y[97] + z[97] <= 0
 mccormick2[98]: - y[98] + z[98] <= 0
 mccormick2[99]: - y[99] + z[99] <= 0
 mccormick3[0]: y[0] + u[0] - z[0] <= 1
 mccormick3[1]: y[1] + u[1] - z[1] <= 1
 mccormick3[2]: y[2] + u[2] - z[2] <= 1
 mccormick3[3]: y[3] + u[3] - z[3] <= 1
 mccormick3[4]: y[4] + u[4] - z[4] <= 1
 mccormick3[5]: y[5] + u[5] - z[5] <= 1
 mccormick3[6]: y[6] + u[6] - z[6] <= 1
 mccormick3[7]: y[7] + u[7] - z[7] <= 1
 mccormick3[8]: y[8] + u[8] - z[8] <= 1
 mccormick3[9]: y[9] + u[9] - z[9] <= 1
 mccormick3[10]: y[10] + u[10] - z[10] <= 1
 mccormick3[11]: y[11] + u[11] - z[11] <= 1
 mccormick3[12]: y[12] + u[12] - z[12] <= 1
 mccormick3[13]: y[13] + u[13] - z[13] <= 1
 mccormick3[14]: y[14] + u[14] - z[14] <= 1
 mccormick3[15]: y[15] + u[15] - z[15] <= 1
 mccormick3[16]: y[16] + u[16] - z[16] <= 1
 mccormick3[17]: y[17] + u[17] - z[17] <= 1
 mccormick3[18]: y[18] + u[18] - z[18] <= 1
 mccormick3[19]: y[19] + u[19] - z[19] <= 1
 mccormick3[20]: y[20] + u[20] - z[20] <= 1
 mccormick3[21]: y[21] + u[21] - z[21] <= 1
 mccormick3[22]: y[22] + u[22] - z[22] <= 1
 mccormick3[23]: y[23] + u[23] - z[23] <= 1
 mccormick3[24]: y[24] + u[24] - z[24] <= 1
 mccormick3[25]: y[25] + u[25] - z[25] <= 1
 mccormick3[26]: y[26] + u[26] - z[26] <= 1
 mccormick3[27]: y[27] + u[27] - z[27] <= 1
 mccormick3[28]: y[28] + u[28] - z[28] <= 1
 mccormick3[29]: y[29] + u[29] - z[29] <= 1
 mccormick3[30]: y[30] + u[30] - z[30] <= 1
 mccormick3[31]: y[31] + u[31] - z[31] <= 1
 mccormick3[32]: y[32] + u[32] - z[32] <= 1
 mccormick3[33]: y[33] + u[33] - z[33] <= 1
 mccormick3[34]: y[34] + u[34] - z[34] <= 1
 mccormick3[35]: y[35] + u[35] - z[35] <= 1
 mccormick3[36]: y[36] + u[36] - z[36] <= 1
 mccormick3[37]: y[37] + u[37] - z[37] <= 1
 mccormick3[38]: y[38] + u[38] - z[38] <= 1
 mccormick3[39]: y[39] + u[39] - z[39] <= 1
 mccormick3[40]: y[40] + u[40] - z[40] <= 1
 mccormick3[41]: y[41] + u[41] - z[41] <= 1
 mccormick3[42]: y[42] + u[42] - z[42] <= 1
 mccormick3[43]: y[43] + u[43] - z[43] <= 1
 mccormick3[44]: y[44] + u[44] - z[44] <= 1
 mccormick3[45]: y[45] + u[45] - z[45] <= 1
 mccormick3[46]: y[46] + u[46] - z[46] <= 1
 mccormick3[47]: y[47] + u[47] - z[47] <= 1
 mccormick3[48]: y[48] + u[48] - z[48] <= 1
 mccormick3[49]: y[49] + u[49] - z[49] <= 1
 mccormick3[50]: y[50] + u[50] - z[50] <= 1
 mccormick3[51]: y[51] + u[51] - z[51] <= 1
 mccormick3[52]: y[52] + u[52] - z[52] <= 1
 mccormick3[53]: y[53] + u[53] - z[53] <= 1
 mccormick3[54]: y[54] + u[54] - z[54] <= 1
 mccormick3[55]: y[55] + u[55] - z[55] <= 1
 mccormick3[56]: y[56] + u[56] - z[56] <= 1
 mccormick3[57]: y[57] + u[57] - z[57] <= 1
 mccormick3[58]: y[58] + u[58] - z[58] <= 1
 mccormick3[59]: y[59] + u[59] - z[59] <= 1
 mccormick3[60]: y[60] + u[60] - z[60] <= 1
 mccormick3[61]: y[61] + u[61] - z[61] <= 1
 mccormick3[62]: y[62] + u[62] - z[62] <= 1
 mccormick3[63]: y[63] + u[63] - z[63] <= 1
 mccormick3[64]: y[64] + u[64] - z[64] <= 1
 mccormick3[65]: y[65] + u[65] - z[65] <= 1
 mccormick3[66]: y[66] + u[66] - z[66] <= 1
 mccormick3[67]: y[67] + u[67] - z[67] <= 1
 mccormick3[68]: y[68] + u[68] - z[68] <= 1
 mccormick3[69]: y[69] + u[69] - z[69] <= 1
 mccormick3[70]: y[70] + u[70] - z[70] <= 1
 mccormick3[71]: y[71] + u[71] - z[71] <= 1
 mccormick3[72]: y[72] + u[72] - z[72] <= 1
 mccormick3[73]: y[73] + u[73] - z[73] <= 1
 mccormick3[74]: y[74] + u[74] - z[74] <= 1
 mccormick3[75]: y[75] + u[75] - z[75] <= 1
 mccormick3[76]: y[76] + u[76] - z[76] <= 1
 mccormick3[77]: y[77] + u[77] - z[77] <= 1
 mccormick3[78]: y[78] + u[78] - z[78] <= 1
 mccormick3[79]: y[79] + u[79] - z[79] <= 1
 mccormick3[80]: y[80] + u[80] - z[80] <= 1
 mccormick3[81]: y[81] + u[81] - z[81] <= 1
 mccormick3[82]: y[82] + u[82] - z[82] <= 1
 mccormick3[83]: y[83] + u[83] - z[83] <= 1
 mccormick3[84]: y[84] + u[84] - z[84] <= 1
 mccormick3[85]: y[85] + u[85] - z[85] <= 1
 mccormick3[86]: y[86] + u[86] - z[86] <= 1
 mccormick3[87]: y[87] + u[87] - z[87] <= 1
 mccormick3[88]: y[88] + u[88] - z[88] <= 1
 mccormick3[89]: y[89] + u[89] - z[89] <= 1
 mccormick3[90]: y[90] + u[90] - z[90] <= 1
 mccormick3[91]: y[91] + u[91] - z[91] <= 1
 mccormick3[92]: y[92] + u[92] - z[92] <= 1
 mccormick3[93]: y[93] + u[93] - z[93] <= 1
 mccormick3[94]: y[94] + u[94] - z[94] <= 1
 mccormick3[95]: y[95] + u[95] - z[95] <= 1
 mccormick3[96]: y[96] + u[96] - z[96] <= 1
 mccormick3[97]: y[97] + u[97] - z[97] <= 1
 mccormick3[98]: y[98] + u[98] - z[98] <= 1
 mccormick3[99]: y[99] + u[99] - z[99] <= 1
Bounds
Binaries
 x[0] x[1] x[2] x[3] x[4] x[5] x[6] x[7] x[8] x[9] x[10] x[11] x[12] x[13]
 x[14] x[15] x[16] x[17] x[18] x[19] x[20] x[21] x[22] x[23] x[24] x[25]
 x[26] x[27] x[28] x[29] x[30] x[31] x[32] x[33] x[34] x[35] x[36] x[37]
 x[38] x[39] x[40] x[41] x[42] x[43] x[44] x[45] x[46] x[47] x[48] x[49]
 x[50] x[51] x[52] x[53] x[54] x[55] x[56] x[57] x[58] x[59] x[60] x[61]
 x[62] x[63] x[64] x[65] x[66] x[67] x[68] x[69] x[70] x[71] x[72] x[73]
 x[74] x[75] x[76] x[77] x[78] x[79] x[80] x[81] x[82] x[83] x[84] x[85]
 x[86] x[87] x[88] x[89] x[90] x[91] x[92] x[93] x[94] x[95] x[96] x[97]
 x[98] x[99] y[0] y[1] y[2] y[3] y[4] y[5] y[6] y[7] y[8] y[9] y[10] y[11]
 y[12] y[13] y[14] y[15] y[16] y[17] y[18] y[19] y[20] y[21] y[22] y[23]
 y[24] y[25] y[26] y[27] y[28] y[29] y[30] y[31] y[32] y[33] y[34] y[35]
 y[36] y[37] y[38] y[39] y[40] y[41] y[42] y[43] y[44] y[45] y[46] y[47]
 y[48] y[49] y[50] y[51] y[52] y[53] y[54] y[55] y[56] y[57] y[58] y[59]
 y[60] y[61] y[62] y[63] y[64] y[65] y[66] y[67] y[68] y[69] y[70] y[71]
 y[72] y[73] y[74] y[75] y[76] y[77] y[78] y[79] y[80] y[81] y[82] y[83]
 y[84] y[85] y[86] y[87] y[88] y[89] y[90] y[91] y[92] y[93] y[94] y[95]
 y[96] y[97] y[98] y[99] u[0] u[1] u[2] u[3] u[4] u[5] u[6] u[7] u[8] u[9]
 u[10] u[11] u[12] u[13] u[14] u[15] u[16] u[17] u[18] u[19] u[20] u[21]
 u[22] u[23] u[24] u[25] u[26] u[27] u[28] u[29] u[30] u[31] u[32] u[33]
 u[34] u[35] u[36] u[37] u[38] u[39] u[40] u[41] u[42] u[43] u[44] u[45]
 u[46] u[47] u[48] u[49] u[50] u[51] u[52] u[53] u[54] u[55] u[56] u[57]
 u[58] u[59] u[60] u[61] u[62] u[63] u[64] u[65] u[66] u[67] u[68] u[69]
 u[70] u[71] u[72] u[73] u[74] u[75] u[76] u[77] u[78] u[79] u[80] u[81]
 u[82] u[83] u[84] u[85] u[86] u[87] u[88] u[89] u[90] u[91] u[92] u[93]
 u[94] u[95] u[96] u[97] u[98] u[99] z[0] z[1] z[2] z[3] z[4] z[5] z[6]
 z[7] z[8] z[9] z[10] z[11] z[12] z[13] z[14] z[15] z[16] z[17] z[18] z[19]
 z[20] z[21] z[22] z[23] z[24] z[25] z[26] z[27] z[28] z[29] z[30] z[31]
 z[32] z[33] z[34] z[35] z[36] z[37] z[38] z[39] z[40] z[41] z[42] z[43]
 z[44] z[45] z[46] z[47] z[48] z[49] z[50] z[51] z[52] z[53] z[54] z[55]
 z[56] z[57] z[58] z[59] z[60] z[61] z[62] z[63] z[64] z[65] z[66] z[67]
 z[68] z[69] z[70] z[71] z[72] z[73] z[74] z[75] z[76] z[77] z[78] z[79]
 z[80] z[81] z[82] z[83] z[84] z[85] z[86] z[87] z[88] z[89] z[90] z[91]
 z[92] z[93] z[94] z[95] z[96] z[97] z[98] z[99]
End
